c instance by G2
c solution = 10010000010000001011000
c Known solution cost is 1120 
p cnf 23 30
w 85 25 20 5 92 76 98 43 9 47 22 34 70 10 98 86 23 27 51 25 35 53 86
-12 14 8 0
10 2 13 0
-6 16 -17 0
16 19 -14 0
-22 -1 9 0
19 22 -15 0
14 -11 22 0
21 2 -23 0
-19 23 -9 0
5 14 -18 0
1 -4 15 0
23 -11 -12 0
23 -8 -19 0
13 16 -8 0
13 8 -16 0
-2 5 -20 0
-15 21 23 0
13 20 6 0
6 -19 -3 0
-21 2 16 0
-14 7 9 0
7 -5 -10 0
-1 9 17 0
23 15 -7 0
21 -5 9 0
18 -17 -13 0
14 4 21 0
10 6 -20 0
22 19 16 0
22 21 4 0
